\Generated by Cardinal Operations

Maximize
   200 x_0_0 + 200 x_0_1 + 200 x_0_2 + 200 x_0_3 + 200 x_0_4 + 200 x_0_5 
   + 200 x_0_6 + 200 x_0_7 + 200 x_0_8 + 200 x_0_9 + 1500 x_1_0 
   + 1500 x_1_1 + 1500 x_1_2 + 1500 x_1_3 + 1500 x_1_4 + 1500 x_1_5 
   + 1500 x_1_6 + 1500 x_1_7 + 1500 x_1_8 + 1500 x_1_9 + 100 x_2_0 
   + 100 x_2_1 + 100 x_2_2 + 100 x_2_3 + 100 x_2_4 + 100 x_2_5 + 100 x_2_6 
   + 100 x_2_7 + 100 x_2_8 + 100 x_2_9 + 800 x_3_0 + 800 x_3_1 + 800 x_3_2 
   + 800 x_3_3 + 800 x_3_4 + 800 x_3_5 + 800 x_3_6 + 800 x_3_7 + 800 x_3_8 
   + 800 x_3_9 + 250 x_4_0 + 250 x_4_1 + 250 x_4_2 + 250 x_4_3 + 250 x_4_4 
   + 250 x_4_5 + 250 x_4_6 + 250 x_4_7 + 250 x_4_8 + 250 x_4_9 + 600 x_5_0 
   + 600 x_5_1 + 600 x_5_2 + 600 x_5_3 + 600 x_5_4 + 600 x_5_5 + 600 x_5_6 
   + 600 x_5_7 + 600 x_5_8 + 600 x_5_9 + 150 x_6_0 + 150 x_6_1 + 150 x_6_2 
   + 150 x_6_3 + 150 x_6_4 + 150 x_6_5 + 150 x_6_6 + 150 x_6_7 + 150 x_6_8 
   + 150 x_6_9 + 80 x_7_0 + 80 x_7_1 + 80 x_7_2 + 80 x_7_3 + 80 x_7_4 
   + 80 x_7_5 + 80 x_7_6 + 80 x_7_7 + 80 x_7_8 + 80 x_7_9 + 50 x_8_0 
   + 50 x_8_1 + 50 x_8_2 + 50 x_8_3 + 50 x_8_4 + 50 x_8_5 + 50 x_8_6 
   + 50 x_8_7 + 50 x_8_8 + 50 x_8_9 + 300 x_9_0 + 300 x_9_1 + 300 x_9_2 
   + 300 x_9_3 + 300 x_9_4 + 300 x_9_5 + 300 x_9_6 + 300 x_9_7 + 300 x_9_8 
   + 300 x_9_9 + 400 x_10_0 + 400 x_10_1 + 400 x_10_2 + 400 x_10_3 
   + 400 x_10_4 + 400 x_10_5 + 400 x_10_6 + 400 x_10_7 + 400 x_10_8 
   + 400 x_10_9 + 120 x_11_0 + 120 x_11_1 + 120 x_11_2 + 120 x_11_3 
   + 120 x_11_4 + 120 x_11_5 + 120 x_11_6 + 120 x_11_7 + 120 x_11_8 
   + 120 x_11_9 + 60 x_12_0 + 60 x_12_1 + 60 x_12_2 + 60 x_12_3 + 60 x_12_4 
   + 60 x_12_5 + 60 x_12_6 + 60 x_12_7 + 60 x_12_8 + 60 x_12_9 + 40 x_13_0 
   + 40 x_13_1 + 40 x_13_2 + 40 x_13_3 + 40 x_13_4 + 40 x_13_5 + 40 x_13_6 
   + 40 x_13_7 + 40 x_13_8 + 40 x_13_9 + 30 x_14_0 + 30 x_14_1 + 30 x_14_2 
   + 30 x_14_3 + 30 x_14_4 + 30 x_14_5 + 30 x_14_6 + 30 x_14_7 + 30 x_14_8 
   + 30 x_14_9 + 25 x_15_0 + 25 x_15_1 + 25 x_15_2 + 25 x_15_3 + 25 x_15_4 
   + 25 x_15_5 + 25 x_15_6 + 25 x_15_7 + 25 x_15_8 + 25 x_15_9 + 100 x_16_0 
   + 100 x_16_1 + 100 x_16_2 + 100 x_16_3 + 100 x_16_4 + 100 x_16_5 
   + 100 x_16_6 + 100 x_16_7 + 100 x_16_8 + 100 x_16_9 + 500 x_17_0 
   + 500 x_17_1 + 500 x_17_2 + 500 x_17_3 + 500 x_17_4 + 500 x_17_5 
   + 500 x_17_6 + 500 x_17_7 + 500 x_17_8 + 500 x_17_9 + 90 x_18_0 
   + 90 x_18_1 + 90 x_18_2 + 90 x_18_3 + 90 x_18_4 + 90 x_18_5 + 90 x_18_6 
   + 90 x_18_7 + 90 x_18_8 + 90 x_18_9 + 180 x_19_0 + 180 x_19_1 
   + 180 x_19_2 + 180 x_19_3 + 180 x_19_4 + 180 x_19_5 + 180 x_19_6 
   + 180 x_19_7 + 180 x_19_8 + 180 x_19_9 
Subject To
 capacity_constraint: x_0_0 + 5 x_1_0 + 0.5 x_2_0 + 2 x_3_0 + 0.3 x_4_0 
   + 1.5 x_5_0 + x_6_0 + 0.8 x_7_0 + 0.2 x_8_0 + 3 x_9_0 + 4 x_10_0 
   + 0.5 x_11_0 + 0.3 x_12_0 + 0.4 x_13_0 + 0.05 x_14_0 + 0.02 x_15_0 
   + 0.6 x_16_0 + 4 x_17_0 + 0.2 x_18_0 + 0.5 x_19_0 <= 5
 x_0_1 + 5 x_1_1 + 0.5 x_2_1 + 2 x_3_1 + 0.3 x_4_1 + 1.5 x_5_1 + x_6_1 
   + 0.8 x_7_1 + 0.2 x_8_1 + 3 x_9_1 + 4 x_10_1 + 0.5 x_11_1 + 0.3 x_12_1 
   + 0.4 x_13_1 + 0.05 x_14_1 + 0.02 x_15_1 + 0.6 x_16_1 + 4 x_17_1 
   + 0.2 x_18_1 + 0.5 x_19_1 <= 7
 x_0_2 + 5 x_1_2 + 0.5 x_2_2 + 2 x_3_2 + 0.3 x_4_2 + 1.5 x_5_2 + x_6_2 
   + 0.8 x_7_2 + 0.2 x_8_2 + 3 x_9_2 + 4 x_10_2 + 0.5 x_11_2 + 0.3 x_12_2 
   + 0.4 x_13_2 + 0.05 x_14_2 + 0.02 x_15_2 + 0.6 x_16_2 + 4 x_17_2 
   + 0.2 x_18_2 + 0.5 x_19_2 <= 6
 x_0_3 + 5 x_1_3 + 0.5 x_2_3 + 2 x_3_3 + 0.3 x_4_3 + 1.5 x_5_3 + x_6_3 
   + 0.8 x_7_3 + 0.2 x_8_3 + 3 x_9_3 + 4 x_10_3 + 0.5 x_11_3 + 0.3 x_12_3 
   + 0.4 x_13_3 + 0.05 x_14_3 + 0.02 x_15_3 + 0.6 x_16_3 + 4 x_17_3 
   + 0.2 x_18_3 + 0.5 x_19_3 <= 8
 x_0_4 + 5 x_1_4 + 0.5 x_2_4 + 2 x_3_4 + 0.3 x_4_4 + 1.5 x_5_4 + x_6_4 
   + 0.8 x_7_4 + 0.2 x_8_4 + 3 x_9_4 + 4 x_10_4 + 0.5 x_11_4 + 0.3 x_12_4 
   + 0.4 x_13_4 + 0.05 x_14_4 + 0.02 x_15_4 + 0.6 x_16_4 + 4 x_17_4 
   + 0.2 x_18_4 + 0.5 x_19_4 <= 5.5
 x_0_5 + 5 x_1_5 + 0.5 x_2_5 + 2 x_3_5 + 0.3 x_4_5 + 1.5 x_5_5 + x_6_5 
   + 0.8 x_7_5 + 0.2 x_8_5 + 3 x_9_5 + 4 x_10_5 + 0.5 x_11_5 + 0.3 x_12_5 
   + 0.4 x_13_5 + 0.05 x_14_5 + 0.02 x_15_5 + 0.6 x_16_5 + 4 x_17_5 
   + 0.2 x_18_5 + 0.5 x_19_5 <= 9
 x_0_6 + 5 x_1_6 + 0.5 x_2_6 + 2 x_3_6 + 0.3 x_4_6 + 1.5 x_5_6 + x_6_6 
   + 0.8 x_7_6 + 0.2 x_8_6 + 3 x_9_6 + 4 x_10_6 + 0.5 x_11_6 + 0.3 x_12_6 
   + 0.4 x_13_6 + 0.05 x_14_6 + 0.02 x_15_6 + 0.6 x_16_6 + 4 x_17_6 
   + 0.2 x_18_6 + 0.5 x_19_6 <= 6.5
 x_0_7 + 5 x_1_7 + 0.5 x_2_7 + 2 x_3_7 + 0.3 x_4_7 + 1.5 x_5_7 + x_6_7 
   + 0.8 x_7_7 + 0.2 x_8_7 + 3 x_9_7 + 4 x_10_7 + 0.5 x_11_7 + 0.3 x_12_7 
   + 0.4 x_13_7 + 0.05 x_14_7 + 0.02 x_15_7 + 0.6 x_16_7 + 4 x_17_7 
   + 0.2 x_18_7 + 0.5 x_19_7 <= 7.5
 x_0_8 + 5 x_1_8 + 0.5 x_2_8 + 2 x_3_8 + 0.3 x_4_8 + 1.5 x_5_8 + x_6_8 
   + 0.8 x_7_8 + 0.2 x_8_8 + 3 x_9_8 + 4 x_10_8 + 0.5 x_11_8 + 0.3 x_12_8 
   + 0.4 x_13_8 + 0.05 x_14_8 + 0.02 x_15_8 + 0.6 x_16_8 + 4 x_17_8 
   + 0.2 x_18_8 + 0.5 x_19_8 <= 8.199999999999999
 x_0_9 + 5 x_1_9 + 0.5 x_2_9 + 2 x_3_9 + 0.3 x_4_9 + 1.5 x_5_9 + x_6_9 
   + 0.8 x_7_9 + 0.2 x_8_9 + 3 x_9_9 + 4 x_10_9 + 0.5 x_11_9 + 0.3 x_12_9 
   + 0.4 x_13_9 + 0.05 x_14_9 + 0.02 x_15_9 + 0.6 x_16_9 + 4 x_17_9 
   + 0.2 x_18_9 + 0.5 x_19_9 <= 5.7
Generals
 x_0_0  x_0_1  x_0_2  x_0_3  x_0_4  x_0_5  x_0_6  x_0_7  x_0_8  x_0_9  
 x_1_0  x_1_1  x_1_2  x_1_3  x_1_4  x_1_5  x_1_6  x_1_7  x_1_8  x_1_9  
 x_2_0  x_2_1  x_2_2  x_2_3  x_2_4  x_2_5  x_2_6  x_2_7  x_2_8  x_2_9  
 x_3_0  x_3_1  x_3_2  x_3_3  x_3_4  x_3_5  x_3_6  x_3_7  x_3_8  x_3_9  
 x_4_0  x_4_1  x_4_2  x_4_3  x_4_4  x_4_5  x_4_6  x_4_7  x_4_8  x_4_9  
 x_5_0  x_5_1  x_5_2  x_5_3  x_5_4  x_5_5  x_5_6  x_5_7  x_5_8  x_5_9  
 x_6_0  x_6_1  x_6_2  x_6_3  x_6_4  x_6_5  x_6_6  x_6_7  x_6_8  x_6_9  
 x_7_0  x_7_1  x_7_2  x_7_3  x_7_4  x_7_5  x_7_6  x_7_7  x_7_8  x_7_9  
 x_8_0  x_8_1  x_8_2  x_8_3  x_8_4  x_8_5  x_8_6  x_8_7  x_8_8  x_8_9  
 x_9_0  x_9_1  x_9_2  x_9_3  x_9_4  x_9_5  x_9_6  x_9_7  x_9_8  x_9_9  
 x_10_0  x_10_1  x_10_2  x_10_3  x_10_4  x_10_5  x_10_6  x_10_7  x_10_8  
 x_10_9  x_11_0  x_11_1  x_11_2  x_11_3  x_11_4  x_11_5  x_11_6  x_11_7  
 x_11_8  x_11_9  x_12_0  x_12_1  x_12_2  x_12_3  x_12_4  x_12_5  x_12_6  
 x_12_7  x_12_8  x_12_9  x_13_0  x_13_1  x_13_2  x_13_3  x_13_4  x_13_5  
 x_13_6  x_13_7  x_13_8  x_13_9  x_14_0  x_14_1  x_14_2  x_14_3  x_14_4  
 x_14_5  x_14_6  x_14_7  x_14_8  x_14_9  x_15_0  x_15_1  x_15_2  x_15_3  
 x_15_4  x_15_5  x_15_6  x_15_7  x_15_8  x_15_9  x_16_0  x_16_1  x_16_2  
 x_16_3  x_16_4  x_16_5  x_16_6  x_16_7  x_16_8  x_16_9  x_17_0  x_17_1  
 x_17_2  x_17_3  x_17_4  x_17_5  x_17_6  x_17_7  x_17_8  x_17_9  x_18_0  
 x_18_1  x_18_2  x_18_3  x_18_4  x_18_5  x_18_6  x_18_7  x_18_8  x_18_9  
 x_19_0  x_19_1  x_19_2  x_19_3  x_19_4  x_19_5  x_19_6  x_19_7  x_19_8  
 x_19_9  
END

